(set-info :smt-lib-version 2.6)
(set-logic QF_NIA)
(set-info :source |
Generated by: Cristina Borralleras, Daniel Larraz, Albert Oliveras, Enric Rodriguez-Carbonell, Albert Rubio
Generated on: 2017-04-27
Generator: VeryMax
Application: Termination proving
Target solver: barcelogic
|)
(set-info :license "https://creativecommons.org/licenses/by/4.0/")
(set-info :category "industrial")
(set-info :status unknown)
(declare-fun Nl2arg11 () Int)
(declare-fun Nl2arg21 () Int)
(declare-fun Nl2arg31 () Int)
(declare-fun Nl2arg12 () Int)
(declare-fun Nl2arg22 () Int)
(declare-fun Nl2arg32 () Int)
(declare-fun lam0n0 () Int)
(declare-fun lam0n1 () Int)
(declare-fun lam0n2 () Int)
(declare-fun lam0n3 () Int)
(declare-fun lam0n4 () Int)
(declare-fun lam0n5 () Int)
(declare-fun lam0n6 () Int)
(declare-fun lam0n7 () Int)
(declare-fun lam0n8 () Int)
(declare-fun lam0n9 () Int)
(declare-fun UndefCntr0_CT () Int)
(declare-fun Nl2CT1 () Int)
(declare-fun Nl2CT2 () Int)
(declare-fun UndefCntr0_arg1 () Int)
(declare-fun UndefCntr0_arg2 () Int)
(declare-fun UndefCntr0_arg3 () Int)
(declare-fun UndefCntr0_undef7 () Int)
(declare-fun UndefCntr0_undef9 () Int)
(declare-fun UndefCntr0_undef13 () Int)
(declare-fun UndefCntr0_undef14 () Int)
(declare-fun lam1n0 () Int)
(declare-fun lam1n1 () Int)
(declare-fun lam1n2 () Int)
(declare-fun lam1n3 () Int)
(declare-fun lam1n4 () Int)
(declare-fun lam1n5 () Int)
(declare-fun lam1n6 () Int)
(declare-fun lam1n7 () Int)
(declare-fun lam1n8 () Int)
(declare-fun lam1n9 () Int)
(declare-fun lam2n0 () Int)
(declare-fun lam2n1 () Int)
(declare-fun lam2n2 () Int)
(declare-fun lam2n3 () Int)
(declare-fun lam2n4 () Int)
(declare-fun lam2n5 () Int)
(declare-fun lam2n6 () Int)
(declare-fun lam2n7 () Int)
(declare-fun lam2n8 () Int)
(declare-fun lam2n9 () Int)
(declare-fun lam3n0 () Int)
(declare-fun lam3n1 () Int)
(declare-fun lam3n2 () Int)
(declare-fun lam3n3 () Int)
(declare-fun lam3n4 () Int)
(declare-fun lam3n5 () Int)
(declare-fun lam3n6 () Int)
(declare-fun lam4n0 () Int)
(declare-fun lam4n1 () Int)
(declare-fun lam4n2 () Int)
(declare-fun lam4n3 () Int)
(declare-fun lam4n4 () Int)
(declare-fun lam4n5 () Int)
(declare-fun lam4n6 () Int)
(declare-fun undef1 () Int)
(declare-fun undef198 () Int)
(declare-fun undef199 () Int)
(declare-fun arg1 () Int)
(declare-fun arg2 () Int)
(declare-fun arg3 () Int)
(declare-fun undef3 () Int)
(declare-fun lam5n0 () Int)
(declare-fun lam5n1 () Int)
(declare-fun lam5n2 () Int)
(declare-fun lam5n3 () Int)
(declare-fun lam5n4 () Int)
(declare-fun lam6n0 () Int)
(declare-fun lam6n1 () Int)
(declare-fun lam6n2 () Int)
(declare-fun lam6n3 () Int)
(declare-fun lam6n4 () Int)
(declare-fun UndefDef0undef14_CT () Int)
(declare-fun UndefDef0undef14_arg1 () Int)
(declare-fun UndefDef0undef14_arg2 () Int)
(declare-fun UndefDef0undef14_arg3 () Int)
(declare-fun lam7n0 () Int)
(declare-fun lam7n1 () Int)
(declare-fun lam7n2 () Int)
(declare-fun lam7n3 () Int)
(declare-fun lam7n4 () Int)
(declare-fun UndefDef0undef7_CT () Int)
(declare-fun UndefDef0undef7_arg1 () Int)
(declare-fun UndefDef0undef7_arg2 () Int)
(declare-fun UndefDef0undef7_arg3 () Int)
(declare-fun lam8n0 () Int)
(declare-fun lam8n1 () Int)
(declare-fun lam8n2 () Int)
(declare-fun lam8n3 () Int)
(declare-fun lam8n4 () Int)
(declare-fun lam9n0 () Int)
(declare-fun lam9n1 () Int)
(declare-fun lam9n2 () Int)
(declare-fun lam9n3 () Int)
(declare-fun lam9n4 () Int)
(declare-fun lam10n0 () Int)
(declare-fun lam10n1 () Int)
(declare-fun lam10n2 () Int)
(declare-fun lam10n3 () Int)
(declare-fun lam10n4 () Int)
(declare-fun FV_undef13_0 () Int)
(declare-fun FV_arg1_0 () Int)
(declare-fun FV_arg2_0 () Int)
(declare-fun FV_arg3_0 () Int)
(declare-fun FV_undef7_0 () Int)
(declare-fun FV_undef9_0 () Int)
(declare-fun FV_undef14_0 () Int)
(declare-fun lam11n0 () Int)
(declare-fun lam11n1 () Int)
(declare-fun lam11n2 () Int)
(declare-fun lam11n3 () Int)
(declare-fun lam11n4 () Int)
(declare-fun FV_arg1_1 () Int)
(declare-fun FV_arg2_1 () Int)
(declare-fun FV_arg3_1 () Int)
(declare-fun FV_undef14_1 () Int)
(declare-fun FV_undef7_1 () Int)
(declare-fun FV_undef13_1 () Int)
(declare-fun FV_undef23_1 () Int)
(assert ( and ( <= ( - 1 ) Nl2arg11 ) ( <= Nl2arg11 1 ) ( <= ( - 1 ) Nl2arg21 ) ( <= Nl2arg21 1 ) ( <= ( - 1 ) Nl2arg31 ) ( <= Nl2arg31 1 ) ( <= ( - 1 ) Nl2arg12 ) ( <= Nl2arg12 1 ) ( <= ( - 1 ) Nl2arg22 ) ( <= Nl2arg22 1 ) ( <= ( - 1 ) Nl2arg32 ) ( <= Nl2arg32 1 ) ))
(assert ( or ( and ( >= lam0n0 0 ) ( >= lam0n1 0 ) ( >= lam0n2 0 ) ( >= lam0n3 0 ) ( >= lam0n4 0 ) ( >= lam0n5 0 ) ( >= lam0n6 0 ) ( >= lam0n7 0 ) ( >= lam0n8 0 ) ( >= lam0n9 0 ) ( > ( + ( * 1 lam0n0 ) ( * 1 lam0n1 ) ( * 1 lam0n2 ) ( * 1 lam0n3 ) ( * ( - 1 ) lam0n4 ) ( * UndefCntr0_CT lam0n7 ) ( * Nl2CT1 lam0n8 ) ( * Nl2CT2 lam0n9 ) ( - 1 ) ) 0 ) ( = ( + ( * ( - 1 ) lam0n0 ) ( * ( - 1 ) lam0n5 ) ( * UndefCntr0_arg1 lam0n7 ) ( * Nl2arg11 lam0n8 ) ( * Nl2arg12 lam0n9 ) ) 0 ) ( = ( + ( * 1 lam0n1 ) ( * 1 lam0n4 ) ( * UndefCntr0_arg2 lam0n7 ) ( * Nl2arg21 lam0n8 ) ( * Nl2arg22 lam0n9 ) ) 0 ) ( = ( + ( * UndefCntr0_arg3 lam0n7 ) ( * Nl2arg31 lam0n8 ) ( * Nl2arg32 lam0n9 ) ) 0 ) ( = ( + ( * ( - 1 ) lam0n2 ) ( * 1 lam0n5 ) ( * UndefCntr0_undef7 lam0n7 ) ) 0 ) ( = ( * UndefCntr0_undef9 lam0n7 ) 0 ) ( = ( + ( * ( - 1 ) lam0n3 ) ( * UndefCntr0_undef13 lam0n7 ) ) 0 ) ( = ( + ( * ( - 1 ) lam0n1 ) ( * ( - 1 ) lam0n6 ) ( * UndefCntr0_undef14 lam0n7 ) ) 0 ) ) ( and ( >= lam1n0 0 ) ( >= lam1n1 0 ) ( >= lam1n2 0 ) ( >= lam1n3 0 ) ( >= lam1n4 0 ) ( >= lam1n5 0 ) ( >= lam1n6 0 ) ( >= lam1n7 0 ) ( >= lam1n8 0 ) ( >= lam1n9 0 ) ( > ( + ( * 1 lam1n0 ) ( * 1 lam1n1 ) ( * 1 lam1n2 ) ( * 1 lam1n3 ) ( * ( - 1 ) lam1n4 ) ( * UndefCntr0_CT lam1n7 ) ( * Nl2CT1 lam1n8 ) ( * Nl2CT2 lam1n9 ) ( - 1 ( + ( + ( + Nl2CT1 ( * Nl2arg11 0 ) ) ( * Nl2arg21 1 ) ) ( * Nl2arg31 0 ) ) ) ) 0 ) ( = ( + ( * ( - 1 ) lam1n0 ) ( * ( - 1 ) lam1n5 ) ( * UndefCntr0_arg1 lam1n7 ) ( * Nl2arg11 lam1n8 ) ( * Nl2arg12 lam1n9 ) ) 0 ) ( = ( + ( * 1 lam1n1 ) ( * 1 lam1n4 ) ( * UndefCntr0_arg2 lam1n7 ) ( * Nl2arg21 lam1n8 ) ( * Nl2arg22 lam1n9 ) ( - ( + 0 ( * Nl2arg21 1 ) ) ) ) 0 ) ( = ( + ( * UndefCntr0_arg3 lam1n7 ) ( * Nl2arg31 lam1n8 ) ( * Nl2arg32 lam1n9 ) ) 0 ) ( = ( + ( * ( - 1 ) lam1n2 ) ( * 1 lam1n5 ) ( * UndefCntr0_undef7 lam1n7 ) ( - ( + 0 ( * Nl2arg11 1 ) ) ) ) 0 ) ( = ( + ( * UndefCntr0_undef9 lam1n7 ) ( - ( + 0 ( * Nl2arg31 1 ) ) ) ) 0 ) ( = ( + ( * ( - 1 ) lam1n3 ) ( * UndefCntr0_undef13 lam1n7 ) ) 0 ) ( = ( + ( * ( - 1 ) lam1n1 ) ( * ( - 1 ) lam1n6 ) ( * UndefCntr0_undef14 lam1n7 ) ) 0 ) ) ))
(assert ( or ( and ( >= lam0n0 0 ) ( >= lam0n1 0 ) ( >= lam0n2 0 ) ( >= lam0n3 0 ) ( >= lam0n4 0 ) ( >= lam0n5 0 ) ( >= lam0n6 0 ) ( >= lam0n7 0 ) ( >= lam0n8 0 ) ( >= lam0n9 0 ) ( > ( + ( * 1 lam0n0 ) ( * 1 lam0n1 ) ( * 1 lam0n2 ) ( * 1 lam0n3 ) ( * ( - 1 ) lam0n4 ) ( * UndefCntr0_CT lam0n7 ) ( * Nl2CT1 lam0n8 ) ( * Nl2CT2 lam0n9 ) ( - 1 ) ) 0 ) ( = ( + ( * ( - 1 ) lam0n0 ) ( * ( - 1 ) lam0n5 ) ( * UndefCntr0_arg1 lam0n7 ) ( * Nl2arg11 lam0n8 ) ( * Nl2arg12 lam0n9 ) ) 0 ) ( = ( + ( * 1 lam0n1 ) ( * 1 lam0n4 ) ( * UndefCntr0_arg2 lam0n7 ) ( * Nl2arg21 lam0n8 ) ( * Nl2arg22 lam0n9 ) ) 0 ) ( = ( + ( * UndefCntr0_arg3 lam0n7 ) ( * Nl2arg31 lam0n8 ) ( * Nl2arg32 lam0n9 ) ) 0 ) ( = ( + ( * ( - 1 ) lam0n2 ) ( * 1 lam0n5 ) ( * UndefCntr0_undef7 lam0n7 ) ) 0 ) ( = ( * UndefCntr0_undef9 lam0n7 ) 0 ) ( = ( + ( * ( - 1 ) lam0n3 ) ( * UndefCntr0_undef13 lam0n7 ) ) 0 ) ( = ( + ( * ( - 1 ) lam0n1 ) ( * ( - 1 ) lam0n6 ) ( * UndefCntr0_undef14 lam0n7 ) ) 0 ) ) ( and ( >= lam2n0 0 ) ( >= lam2n1 0 ) ( >= lam2n2 0 ) ( >= lam2n3 0 ) ( >= lam2n4 0 ) ( >= lam2n5 0 ) ( >= lam2n6 0 ) ( >= lam2n7 0 ) ( >= lam2n8 0 ) ( >= lam2n9 0 ) ( > ( + ( * 1 lam2n0 ) ( * 1 lam2n1 ) ( * 1 lam2n2 ) ( * 1 lam2n3 ) ( * ( - 1 ) lam2n4 ) ( * UndefCntr0_CT lam2n7 ) ( * Nl2CT1 lam2n8 ) ( * Nl2CT2 lam2n9 ) ( - 1 ( + ( + ( + Nl2CT2 ( * Nl2arg12 0 ) ) ( * Nl2arg22 1 ) ) ( * Nl2arg32 0 ) ) ) ) 0 ) ( = ( + ( * ( - 1 ) lam2n0 ) ( * ( - 1 ) lam2n5 ) ( * UndefCntr0_arg1 lam2n7 ) ( * Nl2arg11 lam2n8 ) ( * Nl2arg12 lam2n9 ) ) 0 ) ( = ( + ( * 1 lam2n1 ) ( * 1 lam2n4 ) ( * UndefCntr0_arg2 lam2n7 ) ( * Nl2arg21 lam2n8 ) ( * Nl2arg22 lam2n9 ) ( - ( + 0 ( * Nl2arg22 1 ) ) ) ) 0 ) ( = ( + ( * UndefCntr0_arg3 lam2n7 ) ( * Nl2arg31 lam2n8 ) ( * Nl2arg32 lam2n9 ) ) 0 ) ( = ( + ( * ( - 1 ) lam2n2 ) ( * 1 lam2n5 ) ( * UndefCntr0_undef7 lam2n7 ) ( - ( + 0 ( * Nl2arg12 1 ) ) ) ) 0 ) ( = ( + ( * UndefCntr0_undef9 lam2n7 ) ( - ( + 0 ( * Nl2arg32 1 ) ) ) ) 0 ) ( = ( + ( * ( - 1 ) lam2n3 ) ( * UndefCntr0_undef13 lam2n7 ) ) 0 ) ( = ( + ( * ( - 1 ) lam2n1 ) ( * ( - 1 ) lam2n6 ) ( * UndefCntr0_undef14 lam2n7 ) ) 0 ) ) ))
(assert ( and ( <= ( + 1 ( * ( - 1 ) undef1 ) ) 0 ) ( <= ( + 1 ( * ( - 1 ) undef198 ) ) 0 ) ( <= ( + undef1 ( * ( - 1 ) undef198 ) ) 0 ) ( <= ( * ( - 1 ) undef199 ) 0 ) ( = ( + arg1 ( * ( - 1 ) undef1 ) ) 0 ) ( = arg2 0 ) ( = ( + arg3 ( * ( - 1 ) undef3 ) ) 0 ) ( <= ( + Nl2CT1 ( * ( + 0 Nl2arg11 ) arg1 ) ( * ( + 0 Nl2arg21 ) arg2 ) ( * ( + 0 Nl2arg31 ) arg3 ) ) 0 ) ( <= ( + Nl2CT2 ( * ( + 0 Nl2arg12 ) arg1 ) ( * ( + 0 Nl2arg22 ) arg2 ) ( * ( + 0 Nl2arg32 ) arg3 ) ) 0 ) ( <= ( + 1 ( * ( - 1 ) arg1 ) ) 0 ) ))
(assert ( or ( not ( = UndefCntr0_arg1 0 ) ) ( not ( = UndefCntr0_arg2 0 ) ) ( not ( = UndefCntr0_arg3 0 ) ) ( not ( = UndefCntr0_undef7 0 ) ) ( not ( = UndefCntr0_undef9 0 ) ) ( not ( = UndefCntr0_undef13 0 ) ) ( not ( = UndefCntr0_undef14 0 ) ) ( = UndefCntr0_CT 0 ) ))
(assert ( or ( and ( = UndefCntr0_arg1 0 ) ( = UndefCntr0_arg2 0 ) ( = UndefCntr0_arg3 0 ) ) ( or ( not ( = UndefCntr0_undef7 0 ) ) ( not ( = UndefCntr0_undef9 0 ) ) ( not ( = UndefCntr0_undef13 0 ) ) ( not ( = UndefCntr0_undef14 0 ) ) ) ))
(assert ( or ( and ( >= lam5n0 0 ) ( >= lam5n1 0 ) ( >= lam5n2 0 ) ( >= lam5n3 0 ) ( >= lam5n4 0 ) ( > ( + ( * 1 lam5n0 ) ( * 1 lam5n1 ) ( * ( - 1 ) lam5n2 ) ( * Nl2CT1 lam5n3 ) ( * Nl2CT2 lam5n4 ) ( - 1 ) ) 0 ) ( = ( + ( * ( - 1 ) lam5n0 ) ( * Nl2arg11 lam5n3 ) ( * Nl2arg12 lam5n4 ) ) 0 ) ( = ( + ( * 1 lam5n2 ) ( * Nl2arg21 lam5n3 ) ( * Nl2arg22 lam5n4 ) ) 0 ) ( = ( + ( * Nl2arg31 lam5n3 ) ( * Nl2arg32 lam5n4 ) ) 0 ) ( = ( * ( - 1 ) lam5n1 ) 0 ) ) ( and ( and ( >= lam6n0 0 ) ( >= lam6n1 0 ) ( >= lam6n2 0 ) ( >= lam6n3 0 ) ( >= lam6n4 0 ) ( > ( + ( * 1 lam6n0 ) ( * 1 lam6n1 ) ( * ( - 1 ) lam6n2 ) ( * Nl2CT1 lam6n3 ) ( * Nl2CT2 lam6n4 ) ( - 1 ( + ( + 1 0 ) ( * ( - 1 ) UndefDef0undef14_CT ) ) ) ) 0 ) ( = ( + ( * ( - 1 ) lam6n0 ) ( * Nl2arg11 lam6n3 ) ( * Nl2arg12 lam6n4 ) ( - ( * UndefDef0undef14_arg1 ( - 1 ) ) ) ) 0 ) ( = ( + ( * 1 lam6n2 ) ( * Nl2arg21 lam6n3 ) ( * Nl2arg22 lam6n4 ) ( - ( + 1 ( * UndefDef0undef14_arg2 ( - 1 ) ) ) ) ) 0 ) ( = ( + ( * Nl2arg31 lam6n3 ) ( * Nl2arg32 lam6n4 ) ( - ( * UndefDef0undef14_arg3 ( - 1 ) ) ) ) 0 ) ( = ( * ( - 1 ) lam6n1 ) 0 ) ) ( and ( >= lam7n0 0 ) ( >= lam7n1 0 ) ( >= lam7n2 0 ) ( >= lam7n3 0 ) ( >= lam7n4 0 ) ( > ( + ( * 1 lam7n0 ) ( * 1 lam7n1 ) ( * ( - 1 ) lam7n2 ) ( * Nl2CT1 lam7n3 ) ( * Nl2CT2 lam7n4 ) ( - 1 ( + 1 ( * ( - 1 ) UndefDef0undef7_CT ) ) ) ) 0 ) ( = ( + ( * ( - 1 ) lam7n0 ) ( * Nl2arg11 lam7n3 ) ( * Nl2arg12 lam7n4 ) ( - ( * UndefDef0undef7_arg1 ( - 1 ) ) ) ) 0 ) ( = ( + ( * 1 lam7n2 ) ( * Nl2arg21 lam7n3 ) ( * Nl2arg22 lam7n4 ) ( - ( * UndefDef0undef7_arg2 ( - 1 ) ) ) ) 0 ) ( = ( + ( * Nl2arg31 lam7n3 ) ( * Nl2arg32 lam7n4 ) ( - ( * UndefDef0undef7_arg3 ( - 1 ) ) ) ) 0 ) ( = ( * ( - 1 ) lam7n1 ) 0 ) ) ( and ( >= lam8n0 0 ) ( >= lam8n1 0 ) ( >= lam8n2 0 ) ( >= lam8n3 0 ) ( >= lam8n4 0 ) ( > ( + ( * 1 lam8n0 ) ( * 1 lam8n1 ) ( * ( - 1 ) lam8n2 ) ( * Nl2CT1 lam8n3 ) ( * Nl2CT2 lam8n4 ) ( - 1 ( + ( + 0 0 ) ( * 1 UndefDef0undef7_CT ) ) ) ) 0 ) ( = ( + ( * ( - 1 ) lam8n0 ) ( * Nl2arg11 lam8n3 ) ( * Nl2arg12 lam8n4 ) ( - ( + ( - 1 ) ( * UndefDef0undef7_arg1 1 ) ) ) ) 0 ) ( = ( + ( * 1 lam8n2 ) ( * Nl2arg21 lam8n3 ) ( * Nl2arg22 lam8n4 ) ( - ( * UndefDef0undef7_arg2 1 ) ) ) 0 ) ( = ( + ( * Nl2arg31 lam8n3 ) ( * Nl2arg32 lam8n4 ) ( - ( * UndefDef0undef7_arg3 1 ) ) ) 0 ) ( = ( * ( - 1 ) lam8n1 ) 0 ) ) ( and ( >= lam9n0 0 ) ( >= lam9n1 0 ) ( >= lam9n2 0 ) ( >= lam9n3 0 ) ( >= lam9n4 0 ) ( > ( + ( * 1 lam9n0 ) ( * 1 lam9n1 ) ( * ( - 1 ) lam9n2 ) ( * Nl2CT1 lam9n3 ) ( * Nl2CT2 lam9n4 ) ( - 1 ( + 0 ( * ( - 1 ) UndefDef0undef14_CT ) ) ) ) 0 ) ( = ( + ( * ( - 1 ) lam9n0 ) ( * Nl2arg11 lam9n3 ) ( * Nl2arg12 lam9n4 ) ( - ( * UndefDef0undef14_arg1 ( - 1 ) ) ) ) 0 ) ( = ( + ( * 1 lam9n2 ) ( * Nl2arg21 lam9n3 ) ( * Nl2arg22 lam9n4 ) ( - ( * UndefDef0undef14_arg2 ( - 1 ) ) ) ) 0 ) ( = ( + ( * Nl2arg31 lam9n3 ) ( * Nl2arg32 lam9n4 ) ( - ( * UndefDef0undef14_arg3 ( - 1 ) ) ) ) 0 ) ( = ( * ( - 1 ) lam9n1 ) 0 ) ) ( or ( and ( = UndefCntr0_undef7 0 ) ( = UndefCntr0_undef14 0 ) ) ( and ( >= lam10n0 0 ) ( >= lam10n1 0 ) ( >= lam10n2 0 ) ( >= lam10n3 0 ) ( >= lam10n4 0 ) ( > ( + ( * 1 lam10n0 ) ( * 1 lam10n1 ) ( * ( - 1 ) lam10n2 ) ( * Nl2CT1 lam10n3 ) ( * Nl2CT2 lam10n4 ) ( - 1 ( + ( + ( + ( + ( + ( + ( + UndefCntr0_CT 0 ) 0 ) 0 ) ( * UndefCntr0_undef7 UndefDef0undef7_CT ) ) 0 ) 0 ) ( * UndefCntr0_undef14 UndefDef0undef14_CT ) ) ) ) 0 ) ( = ( + ( * ( - 1 ) lam10n0 ) ( * Nl2arg11 lam10n3 ) ( * Nl2arg12 lam10n4 ) ( - ( + ( + UndefCntr0_arg1 ( * UndefDef0undef7_arg1 UndefCntr0_undef7 ) ) ( * UndefDef0undef14_arg1 UndefCntr0_undef14 ) ) ) ) 0 ) ( = ( + ( * 1 lam10n2 ) ( * Nl2arg21 lam10n3 ) ( * Nl2arg22 lam10n4 ) ( - ( + ( + UndefCntr0_arg2 ( * UndefDef0undef7_arg2 UndefCntr0_undef7 ) ) ( * UndefDef0undef14_arg2 UndefCntr0_undef14 ) ) ) ) 0 ) ( = ( + ( * Nl2arg31 lam10n3 ) ( * Nl2arg32 lam10n4 ) ( - ( + ( + UndefCntr0_arg3 ( * UndefDef0undef7_arg3 UndefCntr0_undef7 ) ) ( * UndefDef0undef14_arg3 UndefCntr0_undef14 ) ) ) ) 0 ) ( = ( - UndefCntr0_undef9 ) 0 ) ( = ( + ( * ( - 1 ) lam10n1 ) ( - UndefCntr0_undef13 ) ) 0 ) ) ) ) ))
(assert ( or ( = UndefCntr0_undef13 0 ) ( and ( and ( = UndefCntr0_arg1 0 ) ( = UndefCntr0_arg2 0 ) ( = UndefCntr0_arg3 0 ) ( = UndefCntr0_undef7 0 ) ( = UndefCntr0_undef9 0 ) ( = UndefCntr0_undef14 0 ) ) ( or ( and ( <= ( + 1 ( * ( - 1 ) FV_undef13_0 ) ) 0 ) ( <= ( + UndefCntr0_CT ( * UndefCntr0_undef13 FV_undef13_0 ) ( * UndefCntr0_arg1 FV_arg1_0 ) ( * UndefCntr0_arg2 FV_arg2_0 ) ( * UndefCntr0_arg3 FV_arg3_0 ) ( * UndefCntr0_undef7 FV_undef7_0 ) ( * UndefCntr0_undef9 FV_undef9_0 ) ( * UndefCntr0_undef14 FV_undef14_0 ) ) 0 ) ) ( and ( <= ( + 1 ( * ( - 1 ) FV_undef13_0 ) ) 0 ) ( <= ( + UndefCntr0_CT ( * UndefCntr0_undef13 FV_undef13_0 ) ( * UndefCntr0_arg1 FV_arg1_0 ) ( * UndefCntr0_arg2 FV_arg2_0 ) ( * UndefCntr0_arg3 FV_arg3_0 ) ( * UndefCntr0_undef7 FV_undef7_0 ) ( * UndefCntr0_undef9 FV_undef9_0 ) ( * UndefCntr0_undef14 FV_undef14_0 ) ) 0 ) ) ) ) ))
(assert ( and ( >= lam11n0 0 ) ( >= lam11n1 0 ) ( >= lam11n2 0 ) ( >= lam11n3 0 ) ( >= lam11n4 0 ) ( > ( + ( * 1 lam11n0 ) ( * 2 lam11n1 ) ( * ( - 12 ) lam11n2 ) ( * Nl2CT1 lam11n3 ) ( * Nl2CT2 lam11n4 ) ( - 1 ) ) 0 ) ( = ( + ( * ( - 1 ) lam11n0 ) ( * Nl2arg11 lam11n3 ) ( * Nl2arg12 lam11n4 ) ) 0 ) ( = ( + ( * ( - 1 ) lam11n1 ) ( * 1 lam11n2 ) ( * Nl2arg21 lam11n3 ) ( * Nl2arg22 lam11n4 ) ) 0 ) ( = ( + ( * Nl2arg31 lam11n3 ) ( * Nl2arg32 lam11n4 ) ) 0 ) ))
(assert ( and ( and ( <= ( + Nl2CT1 ( * Nl2arg11 FV_arg1_1 ) ( * Nl2arg21 FV_arg2_1 ) ( * Nl2arg31 FV_arg3_1 ) ) 0 ) ( <= ( + Nl2CT2 ( * Nl2arg12 FV_arg1_1 ) ( * Nl2arg22 FV_arg2_1 ) ( * Nl2arg32 FV_arg3_1 ) ) 0 ) ) ( or ( and ( <= ( + 1 ( * ( - 1 ) FV_arg1_1 ) ) 0 ) ( <= ( + 1 FV_arg2_1 ( * ( - 1 ) FV_undef14_1 ) ) 0 ) ( <= ( + 1 ( * ( - 1 ) FV_undef7_1 ) ) 0 ) ( <= ( + 1 ( * ( - 1 ) FV_undef13_1 ) ) 0 ) ( <= ( + ( - 1 ) FV_arg2_1 ) 0 ) ( <= ( + ( * ( - 1 ) FV_arg1_1 ) FV_undef7_1 ) 0 ) ( <= ( * ( - 1 ) FV_undef14_1 ) 0 ) ) ( and ( <= ( + 1 ( * ( - 1 ) FV_arg1_1 ) ) 0 ) ( <= ( + ( * ( - 1 ) FV_arg1_1 ) FV_undef23_1 ) 0 ) ( <= ( + 13 ( * ( - 1 ) FV_arg2_1 ) ) 0 ) ) ( and ( <= ( + 1 ( * ( - 1 ) FV_arg1_1 ) ) 0 ) ( <= ( + ( * ( - 1 ) FV_arg1_1 ) FV_undef23_1 ) 0 ) ( <= ( + 13 ( * ( - 1 ) FV_arg2_1 ) ) 0 ) ) ) ))
(assert ( and ( and ( <= ( + Nl2CT1 ( * Nl2arg11 FV_arg1_1 ) ( * Nl2arg21 FV_arg2_1 ) ( * Nl2arg31 FV_arg3_1 ) ) 0 ) ( <= ( + Nl2CT2 ( * Nl2arg12 FV_arg1_1 ) ( * Nl2arg22 FV_arg2_1 ) ( * Nl2arg32 FV_arg3_1 ) ) 0 ) ) ( or ( and ( <= ( + 1 ( * ( - 1 ) FV_arg1_1 ) ) 0 ) ( <= ( + ( * ( - 1 ) FV_arg1_1 ) FV_undef23_1 ) 0 ) ( <= ( + 13 ( * ( - 1 ) FV_arg2_1 ) ) 0 ) ) ( and ( <= ( + 1 ( * ( - 1 ) FV_arg1_1 ) ) 0 ) ( <= ( + ( * ( - 1 ) FV_arg1_1 ) FV_undef23_1 ) 0 ) ( <= ( + 13 ( * ( - 1 ) FV_arg2_1 ) ) 0 ) ) ) ))
(check-sat)
(exit)
